data;

param num_top:=5;

#nodes and edges of the physical network
param n := 10;

set E := (1,2) (1,3) (1,7) (2,4) (2,7) (3,5) (4,8) (5,6) (5,7) (6,7) (6,9) (7,8) (7,9) (8,10) (9,10) ;

#nodes and edges of the virtual networks
set Nl[1] := 7 4 2 5 ;
set Nl[2] := 1 3 7 4 ;
set Nl[3] := 2 7 9 8 1 ;
set Nl[4] := 10 8 6 7 5 ;
set Nl[5] := 8 1 5 3 ;

set El[1] := (4,7) (2,4) (2,5) (5,7) ;
set El[2] := (1,3) (3,7) (4,7) (1,4) (1,7) (3,4) ;
set El[3] := (2,7) (7,9) (8,9) (1,8) (1,2) ;
set El[4] := (8,10) (6,8) (6,7) (5,7) (5,10) (7,10) (7,8) (5,6) (6,10) (5,8) ;
set El[5] := (1,8) (1,5) (3,5) (3,8) (1,3) (5,8) ;
